NAME: dummy_test
TYPE: ATSP
COMMENT: 4 city problem
DIMENSION: 4
EDGE_WEIGHT_TYPE: EXPLICIT
EDGE_WEIGHT_FORMAT: FULL_MATRIX
EDGE_WEIGHT_SECTION
999   1   0   0
  0 999   1   1
  1   0 999   1
  1   0   0 999
EOF